<number of tasks>
89

<cycle time>
20

<task times>
1 1
2 2
3 3
4 4
5 5
6 6
7 7
8 8
9 9
10 10
11 1
12 2
13 3
14 4
15 5
16 6
17 7
18 8
19 9
20 10
21 1
22 2
23 3
24 4
25 5
26 6
27 7
28 8
29 9
30 10
31 1
32 2
33 3
34 4
35 5
36 6
37 7
38 8
39 9
40 10
41 1
42 2
43 3
44 4
45 5
46 6
47 7
48 8
49 9
50 10
51 1
52 2
53 3
54 4
55 5
56 6
57 7
58 8
59 9
60 10
61 1
62 2
63 3
64 4
65 5
66 6
67 7
68 8
69 9
70 10
71 1
72 2
73 3
74 4
75 5
76 6
77 7
78 8
79 9
80 10
81 1
82 2
83 3
84 4
85 5
86 6
87 7
88 8
89 9

<precedence relations>
1,2
2,3
3,4
4,5
4,6
4,7
4,8
4,9
5,10
6,11
7,12
8,18
9,18
10,14
11,12
12,13
13,14
14,15
14,16
15,17
16,54
17,18
18,19
18,20
19,22
20,21
20,28
21,54
22,23
23,24
24,25
25,26
25,27
25,29
26,37
27,33
28,29
29,31
30,54
31,32
32,33
33,34
34,35
35,36
35,37
36,38
37,38
38,39
39,40
39,41
39,42
39,43
40,44
41,53
42,53
43,45
44,52
45,46
46,47
47,48
47,49
49,50
50,51
51,52
52,53
53,68
53,69
53,70
53,71
54,55
55,56
56,57
57,58
57,59
57,60
57,61
57,62
57,63
57,64
57,65
57,66
58,67
59,67
60,67
61,67
62,67
63,67
64,67
65,67
66,67
67,73
68,72
69,72
70,72
71,73
72,78
72,80
73,74
74,75
74,76
75,77
76,81
77,78
78,79
79,81
80,81
81,82
81,84
81,85
82,83
83,86
84,86
85,86
86,87
87,88
87,89

<setup times forward>
1,30:1
2,30:1
3,30:1
4,6:1
4,7:1
4,30:1
5,6:1
5,7:1
5,10:1
5,11:1
5,12:1
5,13:1
5,30:1
6,5:1
6,8:1
6,9:1
6,10:2
7,5:1
7,8:1
7,9:1
7,10:2
8,6:1
8,7:1
8,10:1
8,11:1
8,12:1
8,13:1
8,14:1
8,16:1
8,30:1
9,6:1
9,7:1
9,10:1
9,11:1
9,12:1
9,13:1
9,14:1
9,16:1
9,30:1
10,6:2
10,7:2
10,8:1
10,9:1
10,11:2
10,12:2
10,13:2
10,30:2
11,5:1
11,8:1
11,9:1
11,10:2
12,5:1
12,8:1
12,9:1
12,10:2
13,5:1
13,8:1
13,9:1
13,10:2
13,14:2
14,8:1
14,9:1
14,15:1
14,30:2
15,16:1
15,30:1
16,8:1
16,9:1
16,15:1
16,17:1
16,18:1
16,22:1
16,23:1
16,24:1
16,25:1
16,26:1
16,27:2
16,28:1
16,29:1
16,30:2
16,31:1
16,32:1
16,33:2
16,36:1
16,38:1
16,39:1
16,40:1
16,41:1
16,42:1
16,43:1
16,44:2
16,45:1
16,46:2
16,47:2
16,48:2
16,49:1
16,50:1
16,68:2
16,69:1
16,70:1
16,71:1
16,72:2
16,80:2
17,16:1
17,30:1
18,16:1
18,19:1
18,20:1
18,30:1
19,22:1
19,28:1
19,30:2
19,55:1
19,56:1
19,57:1
19,58:2
19,60:1
19,61:1
19,62:1
19,63:2
19,64:2
19,66:1
19,67:2
20,22:1
20,23:1
20,24:1
20,25:1
20,26:1
20,27:2
20,28:1
20,30:2
21,22:1
21,23:1
21,24:1
21,25:1
21,26:1
21,27:2
21,28:1
21,29:1
21,30:2
21,31:1
21,32:1
21,33:2
21,36:1
21,38:1
21,39:1
21,40:1
21,41:1
21,42:1
21,43:1
21,44:2
21,45:1
21,46:2
21,47:2
21,48:2
21,49:1
21,50:1
21,68:2
21,69:1
21,70:1
21,71:1
21,72:2
21,80:2
22,16:1
22,20:1
22,21:1
22,28:2
22,30:1
22,54:1
22,55:2
22,56:2
22,57:2
22,58:1
22,59:1
22,60:2
22,61:2
22,62:2
22,63:1
22,64:1
22,65:1
22,67:1
23,16:1
23,20:1
23,21:1
23,28:2
23,30:1
23,54:1
23,55:2
23,56:2
23,57:2
23,58:1
23,59:1
23,60:2
23,61:2
23,62:2
23,63:1
23,64:1
23,65:1
23,67:1
24,16:1
24,20:1
24,21:1
24,28:2
24,30:1
24,54:1
24,55:2
24,56:2
24,57:2
24,58:1
24,59:1
24,60:2
24,61:2
24,62:2
24,63:1
24,64:1
24,65:1
24,67:1
25,16:1
25,20:1
25,21:1
25,27:1
25,28:2
25,29:2
25,30:1
25,54:1
25,55:2
25,56:2
25,57:2
25,58:1
25,59:1
25,60:2
25,61:2
25,62:2
25,63:1
25,64:1
25,65:1
25,67:1
26,16:1
26,20:1
26,21:1
26,27:1
26,28:2
26,29:2
26,30:1
26,31:2
26,32:2
26,33:1
26,34:1
26,35:1
26,37:1
26,54:1
26,55:2
26,56:2
26,57:2
26,58:1
26,59:1
26,60:2
26,61:2
26,62:2
26,63:1
26,64:1
26,65:1
26,67:1
27,16:2
27,20:2
27,21:2
27,26:1
27,28:3
27,29:3
27,31:3
27,32:3
27,54:2
27,55:3
27,56:3
27,57:3
27,59:2
27,60:3
27,61:3
27,62:3
27,65:2
27,66:1
28,16:1
28,19:1
28,21:1
28,22:2
28,23:2
28,24:2
28,25:2
28,26:2
28,27:3
28,30:3
28,54:1
28,58:3
28,59:1
28,63:3
28,64:3
28,65:1
28,66:2
28,67:3
29,16:1
29,21:1
29,26:2
29,27:3
29,30:3
29,54:1
29,58:3
29,59:1
29,63:3
29,64:3
29,65:1
29,66:2
29,67:3
30,1:1
30,2:1
30,3:1
30,4:1
30,5:1
30,8:1
30,9:1
30,10:2
30,14:2
30,15:1
30,16:2
30,17:1
30,18:1
30,19:2
30,20:2
30,21:2
30,22:1
30,23:1
30,24:1
30,25:1
30,26:1
30,28:3
30,29:3
30,31:3
30,32:3
30,34:2
30,35:2
30,36:1
30,37:2
30,38:1
30,39:1
30,40:3
30,41:1
30,42:1
30,43:1
30,45:1
30,49:3
30,50:3
30,51:2
30,52:2
30,53:2
30,54:2
30,69:1
30,70:1
30,71:1
31,16:1
31,21:1
31,26:2
31,27:3
31,30:3
31,54:1
31,58:3
31,59:1
31,63:3
31,64:3
31,65:1
31,66:2
31,67:3
32,16:1
32,21:1
32,26:2
32,27:3
32,30:3
32,33:3
32,54:1
32,58:3
32,59:1
32,63:3
32,64:3
32,65:1
32,66:2
32,67:3
33,16:2
33,21:2
33,26:1
33,34:2
33,54:2
33,55:3
33,56:3
33,57:3
33,59:2
33,60:3
33,61:3
33,62:3
33,65:2
33,66:1
34,26:1
34,30:2
34,55:1
34,56:1
34,57:1
34,58:2
34,60:1
34,61:1
34,62:1
34,63:2
34,64:2
34,66:1
34,67:2
35,26:1
35,30:2
35,36:1
35,55:1
35,56:1
35,57:1
35,58:2
35,60:1
35,61:1
35,62:1
35,63:2
35,64:2
35,66:1
35,67:2
36,16:1
36,21:1
36,30:1
36,37:1
36,54:1
36,55:2
36,56:2
36,57:2
36,58:1
36,59:1
36,60:2
36,61:2
36,62:2
36,63:1
36,64:1
36,65:1
36,67:1
37,30:2
37,36:1
37,38:1
37,55:1
37,56:1
37,57:1
37,58:2
37,60:1
37,61:1
37,62:1
37,63:2
37,64:2
37,66:1
37,67:2
38,16:1
38,21:1
38,30:1
38,54:1
38,55:2
38,56:2
38,57:2
38,58:1
38,59:1
38,60:2
38,61:2
38,62:2
38,63:1
38,64:1
38,65:1
38,67:1
39,16:1
39,21:1
39,30:1
39,40:2
39,54:1
39,55:2
39,56:2
39,57:2
39,58:1
39,59:1
39,60:2
39,61:2
39,62:2
39,63:1
39,64:1
39,65:1
39,67:1
40,16:1
40,21:1
40,30:3
40,41:2
40,42:2
40,43:2
40,44:3
40,45:2
40,46:3
40,47:3
40,48:3
40,51:1
40,54:1
40,58:3
40,59:1
40,63:3
40,64:3
40,65:1
40,66:2
40,67:3
41,16:1
41,21:1
41,30:1
41,40:2
41,44:1
41,46:1
41,47:1
41,48:1
41,49:2
41,50:2
41,51:1
41,52:1
41,53:1
41,54:1
41,55:2
41,56:2
41,57:2
41,58:1
41,59:1
41,60:2
41,61:2
41,62:2
41,63:1
41,64:1
41,65:1
41,67:1
42,16:1
42,21:1
42,30:1
42,40:2
42,44:1
42,46:1
42,47:1
42,48:1
42,49:2
42,50:2
42,51:1
42,52:1
42,53:1
42,54:1
42,55:2
42,56:2
42,57:2
42,58:1
42,59:1
42,60:2
42,61:2
42,62:2
42,63:1
42,64:1
42,65:1
42,67:1
43,16:1
43,21:1
43,30:1
43,40:2
43,44:1
43,54:1
43,55:2
43,56:2
43,57:2
43,58:1
43,59:1
43,60:2
43,61:2
43,62:2
43,63:1
43,64:1
43,65:1
43,67:1
44,16:2
44,21:2
44,41:1
44,42:1
44,43:1
44,45:1
44,49:3
44,50:3
44,51:2
44,52:2
44,54:2
44,55:3
44,56:3
44,57:3
44,59:2
44,60:3
44,61:3
44,62:3
44,65:2
44,66:1
45,16:1
45,21:1
45,30:1
45,40:2
45,44:1
45,46:1
45,54:1
45,55:2
45,56:2
45,57:2
45,58:1
45,59:1
45,60:2
45,61:2
45,62:2
45,63:1
45,64:1
45,65:1
45,67:1
46,16:2
46,21:2
46,40:3
46,41:1
46,42:1
46,54:2
46,55:3
46,56:3
46,57:3
46,59:2
46,60:3
46,61:3
46,62:3
46,65:2
46,66:1
47,16:2
47,21:2
47,40:3
47,41:1
47,42:1
47,49:3
47,54:2
47,55:3
47,56:3
47,57:3
47,59:2
47,60:3
47,61:3
47,62:3
47,65:2
47,66:1
48,16:2
48,21:2
48,40:3
48,41:1
48,42:1
48,49:3
48,50:3
48,51:2
48,52:2
48,53:2
48,54:2
48,55:3
48,56:3
48,57:3
48,59:2
48,60:3
48,61:3
48,62:3
48,65:2
48,66:1
48,69:1
48,70:1
48,71:1
48,75:3
48,77:3
48,78:3
48,85:2
48,86:2
48,87:2
48,88:2
48,89:2
49,16:1
49,21:1
49,30:3
49,41:2
49,42:2
49,44:3
49,48:3
49,54:1
49,58:3
49,59:1
49,63:3
49,64:3
49,65:1
49,66:2
49,67:3
50,16:1
50,21:1
50,30:3
50,41:2
50,42:2
50,44:3
50,48:3
50,51:1
50,54:1
50,58:3
50,59:1
50,63:3
50,64:3
50,65:1
50,66:2
50,67:3
51,30:2
51,40:1
51,41:1
51,42:1
51,44:2
51,48:2
51,55:1
51,56:1
51,57:1
51,58:2
51,60:1
51,61:1
51,62:1
51,63:2
51,64:2
51,66:1
51,67:2
52,30:2
52,41:1
52,42:1
52,48:2
52,55:1
52,56:1
52,57:1
52,58:2
52,60:1
52,61:1
52,62:1
52,63:2
52,64:2
52,66:1
52,67:2
53,30:2
53,48:2
53,55:1
53,56:1
53,57:1
53,58:2
53,60:1
53,61:1
53,62:1
53,63:2
53,64:2
53,66:1
53,67:2
53,68:2
53,69:1
53,70:1
53,71:1
54,22:1
54,23:1
54,24:1
54,25:1
54,26:1
54,27:2
54,28:1
54,29:1
54,31:1
54,32:1
54,33:2
54,36:1
54,38:1
54,39:1
54,40:1
54,41:1
54,42:1
54,43:1
54,44:2
54,45:1
54,46:2
54,47:2
54,48:2
54,49:1
54,50:1
54,55:1
54,68:2
54,69:1
54,70:1
54,71:1
54,72:2
54,80:2
55,19:1
55,22:2
55,23:2
55,24:2
55,25:2
55,26:2
55,27:3
55,33:3
55,34:1
55,35:1
55,36:2
55,37:1
55,38:2
55,39:2
55,41:2
55,42:2
55,43:2
55,44:3
55,45:2
55,46:3
55,47:3
55,48:3
55,51:1
55,52:1
55,53:1
55,68:3
55,69:2
55,70:2
55,71:2
55,72:3
55,80:3
56,19:1
56,22:2
56,23:2
56,24:2
56,25:2
56,26:2
56,27:3
56,33:3
56,34:1
56,35:1
56,36:2
56,37:1
56,38:2
56,39:2
56,41:2
56,42:2
56,43:2
56,44:3
56,45:2
56,46:3
56,47:3
56,48:3
56,51:1
56,52:1
56,53:1
56,68:3
56,69:2
56,70:2
56,71:2
56,72:3
56,80:3
57,19:1
57,22:2
57,23:2
57,24:2
57,25:2
57,26:2
57,27:3
57,33:3
57,34:1
57,35:1
57,36:2
57,37:1
57,38:2
57,39:2
57,41:2
57,42:2
57,43:2
57,44:3
57,45:2
57,46:3
57,47:3
57,48:3
57,51:1
57,52:1
57,53:1
57,58:3
57,59:1
57,63:3
57,64:3
57,65:1
57,66:2
57,68:3
57,69:2
57,70:2
57,71:2
57,72:3
57,80:3
58,19:2
58,22:1
58,23:1
58,24:1
58,25:1
58,26:1
58,28:3
58,29:3
58,31:3
58,32:3
58,34:2
58,35:2
58,36:1
58,37:2
58,38:1
58,39:1
58,40:3
58,41:1
58,42:1
58,43:1
58,45:1
58,49:3
58,50:3
58,51:2
58,52:2
58,53:2
58,59:2
58,60:3
58,61:3
58,62:3
58,65:2
58,66:1
58,69:1
58,70:1
58,71:1
59,22:1
59,23:1
59,24:1
59,25:1
59,26:1
59,27:2
59,28:1
59,29:1
59,31:1
59,32:1
59,33:2
59,36:1
59,38:1
59,39:1
59,40:1
59,41:1
59,42:1
59,43:1
59,44:2
59,45:1
59,46:2
59,47:2
59,48:2
59,49:1
59,50:1
59,58:2
59,60:1
59,61:1
59,62:1
59,63:2
59,64:2
59,66:1
59,67:2
59,68:2
59,69:1
59,70:1
59,71:1
59,72:2
59,80:2
60,19:1
60,22:2
60,23:2
60,24:2
60,25:2
60,26:2
60,27:3
60,33:3
60,34:1
60,35:1
60,36:2
60,37:1
60,38:2
60,39:2
60,41:2
60,42:2
60,43:2
60,44:3
60,45:2
60,46:3
60,47:3
60,48:3
60,51:1
60,52:1
60,53:1
60,58:3
60,59:1
60,63:3
60,64:3
60,65:1
60,66:2
60,67:3
60,68:3
60,69:2
60,70:2
60,71:2
60,72:3
60,80:3
61,19:1
61,22:2
61,23:2
61,24:2
61,25:2
61,26:2
61,27:3
61,33:3
61,34:1
61,35:1
61,36:2
61,37:1
61,38:2
61,39:2
61,41:2
61,42:2
61,43:2
61,44:3
61,45:2
61,46:3
61,47:3
61,48:3
61,51:1
61,52:1
61,53:1
61,58:3
61,59:1
61,63:3
61,64:3
61,65:1
61,66:2
61,67:3
61,68:3
61,69:2
61,70:2
61,71:2
61,72:3
61,80:3
62,19:1
62,22:2
62,23:2
62,24:2
62,25:2
62,26:2
62,27:3
62,33:3
62,34:1
62,35:1
62,36:2
62,37:1
62,38:2
62,39:2
62,41:2
62,42:2
62,43:2
62,44:3
62,45:2
62,46:3
62,47:3
62,48:3
62,51:1
62,52:1
62,53:1
62,58:3
62,59:1
62,63:3
62,64:3
62,65:1
62,66:2
62,67:3
62,68:3
62,69:2
62,70:2
62,71:2
62,72:3
62,80:3
63,19:2
63,22:1
63,23:1
63,24:1
63,25:1
63,26:1
63,28:3
63,29:3
63,31:3
63,32:3
63,34:2
63,35:2
63,36:1
63,37:2
63,38:1
63,39:1
63,40:3
63,41:1
63,42:1
63,43:1
63,45:1
63,49:3
63,50:3
63,51:2
63,52:2
63,53:2
63,59:2
63,60:3
63,61:3
63,62:3
63,65:2
63,66:1
63,69:1
63,70:1
63,71:1
64,19:2
64,22:1
64,23:1
64,24:1
64,25:1
64,26:1
64,28:3
64,29:3
64,31:3
64,32:3
64,34:2
64,35:2
64,36:1
64,37:2
64,38:1
64,39:1
64,40:3
64,41:1
64,42:1
64,43:1
64,45:1
64,49:3
64,50:3
64,51:2
64,52:2
64,53:2
64,59:2
64,60:3
64,61:3
64,62:3
64,65:2
64,66:1
64,69:1
64,70:1
64,71:1
65,22:1
65,23:1
65,24:1
65,25:1
65,26:1
65,27:2
65,28:1
65,29:1
65,31:1
65,32:1
65,33:2
65,36:1
65,38:1
65,39:1
65,40:1
65,41:1
65,42:1
65,43:1
65,44:2
65,45:1
65,46:2
65,47:2
65,48:2
65,49:1
65,50:1
65,58:2
65,60:1
65,61:1
65,62:1
65,63:2
65,64:2
65,66:1
65,67:2
65,68:2
65,69:1
65,70:1
65,71:1
65,72:2
65,80:2
66,19:1
66,27:1
66,28:2
66,29:2
66,31:2
66,32:2
66,33:1
66,34:1
66,35:1
66,37:1
66,40:2
66,44:1
66,46:1
66,47:1
66,48:1
66,49:2
66,50:2
66,51:1
66,52:1
66,53:1
66,58:1
66,59:1
66,60:2
66,61:2
66,62:2
66,63:1
66,64:1
66,65:1
66,67:1
66,68:1
66,72:1
66,80:1
67,19:2
67,22:1
67,23:1
67,24:1
67,25:1
67,26:1
67,28:3
67,29:3
67,31:3
67,32:3
67,34:2
67,35:2
67,36:1
67,37:2
67,38:1
67,39:1
67,40:3
67,41:1
67,42:1
67,43:1
67,45:1
67,49:3
67,50:3
67,51:2
67,52:2
67,53:2
67,69:1
67,70:1
67,71:1
68,16:2
68,21:2
68,54:2
68,55:3
68,56:3
68,57:3
68,59:2
68,60:3
68,61:3
68,62:3
68,65:2
68,66:1
68,69:1
68,70:1
68,71:1
68,75:3
68,77:3
69,16:1
69,21:1
69,30:1
69,48:1
69,54:1
69,55:2
69,56:2
69,57:2
69,58:1
69,59:1
69,60:2
69,61:2
69,62:2
69,63:1
69,64:1
69,65:1
69,67:1
69,68:1
69,72:1
69,73:1
69,74:1
69,75:2
69,76:1
69,77:2
70,16:1
70,21:1
70,30:1
70,48:1
70,54:1
70,55:2
70,56:2
70,57:2
70,58:1
70,59:1
70,60:2
70,61:2
70,62:2
70,63:1
70,64:1
70,65:1
70,67:1
70,68:1
70,72:1
70,73:1
70,74:1
70,75:2
70,76:1
70,77:2
71,16:1
71,21:1
71,30:1
71,48:1
71,54:1
71,55:2
71,56:2
71,57:2
71,58:1
71,59:1
71,60:2
71,61:2
71,62:2
71,63:1
71,64:1
71,65:1
71,67:1
71,68:1
71,72:1
71,73:1
71,80:1
72,16:2
72,21:2
72,54:2
72,55:3
72,56:3
72,57:3
72,59:2
72,60:3
72,61:3
72,62:3
72,65:2
72,66:1
72,71:1
72,75:3
72,77:3
72,78:3
73,69:1
73,70:1
74,69:1
74,70:1
74,75:3
75,48:3
75,68:3
75,69:2
75,70:2
75,72:3
75,76:3
75,80:3
76,69:1
76,70:1
76,75:3
76,77:3
76,78:3
77,48:3
77,68:3
77,69:2
77,70:2
77,72:3
77,76:3
77,80:3
78,48:3
78,76:3
78,79:3
78,80:3
80,16:2
80,21:2
80,54:2
80,55:3
80,56:3
80,57:3
80,59:2
80,60:3
80,61:3
80,62:3
80,65:2
80,66:1
80,71:1
80,75:3
80,77:3
80,78:3
81,85:2
82,85:2
83,85:2
83,86:2
84,85:2
84,86:2
85,48:2
85,82:2
85,83:2
85,84:2
86,48:2
87,48:2
88,48:2
89,48:2

<setup times backward>
6,1:1
6,2:1
6,3:1
6,4:1
6,5:1
6,8:1
6,9:1
6,10:2
7,1:1
7,2:1
7,3:1
7,4:1
7,5:1
7,8:1
7,9:1
7,10:2
8,10:1
8,14:1
8,16:1
9,10:1
9,14:1
9,16:1
11,1:1
11,2:1
11,3:1
11,4:1
11,5:1
11,8:1
11,9:1
11,10:2
12,1:1
12,2:1
12,3:1
12,4:1
12,5:1
12,8:1
12,9:1
12,10:2
13,1:1
13,2:1
13,3:1
13,4:1
13,5:1
13,8:1
13,9:1
13,10:2
15,10:1
15,14:1
15,16:1
16,28:1
16,29:1
16,31:1
16,32:1
16,40:1
16,49:1
16,50:1
17,10:1
17,14:1
17,16:1
18,10:1
18,14:1
18,16:1
19,28:1
19,55:1
19,56:1
19,57:1
19,60:1
19,61:1
19,62:1
21,28:1
21,29:1
21,31:1
21,32:1
21,40:1
21,49:1
21,50:1
22,10:1
22,14:1
22,16:1
22,19:1
22,20:1
22,21:1
22,28:2
22,54:1
22,55:2
22,56:2
22,57:2
22,59:1
22,60:2
22,61:2
22,62:2
22,65:1
23,10:1
23,14:1
23,16:1
23,19:1
23,20:1
23,21:1
23,28:2
23,54:1
23,55:2
23,56:2
23,57:2
23,59:1
23,60:2
23,61:2
23,62:2
23,65:1
24,10:1
24,14:1
24,16:1
24,19:1
24,20:1
24,21:1
24,28:2
24,54:1
24,55:2
24,56:2
24,57:2
24,59:1
24,60:2
24,61:2
24,62:2
24,65:1
25,10:1
25,14:1
25,16:1
25,19:1
25,20:1
25,21:1
25,28:2
25,54:1
25,55:2
25,56:2
25,57:2
25,59:1
25,60:2
25,61:2
25,62:2
25,65:1
26,10:1
26,14:1
26,16:1
26,19:1
26,20:1
26,21:1
26,28:2
26,29:2
26,31:2
26,32:2
26,34:1
26,35:1
26,54:1
26,55:2
26,56:2
26,57:2
26,59:1
26,60:2
26,61:2
26,62:2
26,65:1
27,1:1
27,2:1
27,3:1
27,4:1
27,5:1
27,8:1
27,9:1
27,10:2
27,14:2
27,15:1
27,16:2
27,17:1
27,18:1
27,19:2
27,20:2
27,21:2
27,22:1
27,23:1
27,24:1
27,25:1
27,26:1
27,28:3
27,29:3
27,31:3
27,32:3
27,54:2
27,55:3
27,56:3
27,57:3
27,59:2
27,60:3
27,61:3
27,62:3
27,65:2
27,66:1
30,1:1
30,2:1
30,3:1
30,4:1
30,5:1
30,8:1
30,9:1
30,10:2
30,14:2
30,15:1
30,16:2
30,17:1
30,18:1
30,19:2
30,20:2
30,21:2
30,22:1
30,23:1
30,24:1
30,25:1
30,26:1
30,28:3
30,29:3
30,31:3
30,32:3
30,34:2
30,35:2
30,36:1
30,37:2
30,38:1
30,39:1
30,40:3
30,41:1
30,42:1
30,43:1
30,45:1
30,49:3
30,50:3
30,51:2
30,52:2
30,53:2
30,69:1
30,70:1
30,71:1
33,1:1
33,2:1
33,3:1
33,4:1
33,5:1
33,8:1
33,9:1
33,10:2
33,14:2
33,15:1
33,16:2
33,17:1
33,18:1
33,19:2
33,20:2
33,21:2
33,22:1
33,23:1
33,24:1
33,25:1
33,26:1
33,28:3
33,29:3
33,31:3
33,32:3
33,54:2
33,55:3
33,56:3
33,57:3
33,59:2
33,60:3
33,61:3
33,62:3
33,65:2
33,66:1
34,28:1
34,29:1
34,31:1
34,32:1
34,55:1
34,56:1
34,57:1
34,60:1
34,61:1
34,62:1
35,28:1
35,29:1
35,31:1
35,32:1
35,55:1
35,56:1
35,57:1
35,60:1
35,61:1
35,62:1
36,10:1
36,14:1
36,16:1
36,19:1
36,20:1
36,21:1
36,28:2
36,29:2
36,31:2
36,32:2
36,34:1
36,35:1
36,37:1
36,54:1
36,55:2
36,56:2
36,57:2
36,59:1
36,60:2
36,61:2
36,62:2
36,65:1
37,28:1
37,29:1
37,31:1
37,32:1
37,55:1
37,56:1
37,57:1
37,60:1
37,61:1
37,62:1
38,10:1
38,14:1
38,16:1
38,19:1
38,20:1
38,21:1
38,28:2
38,29:2
38,31:2
38,32:2
38,34:1
38,35:1
38,37:1
38,54:1
38,55:2
38,56:2
38,57:2
38,59:1
38,60:2
38,61:2
38,62:2
38,65:1
39,10:1
39,14:1
39,16:1
39,19:1
39,20:1
39,21:1
39,28:2
39,29:2
39,31:2
39,32:2
39,34:1
39,35:1
39,37:1
39,54:1
39,55:2
39,56:2
39,57:2
39,59:1
39,60:2
39,61:2
39,62:2
39,65:1
41,10:1
41,14:1
41,16:1
41,19:1
41,20:1
41,21:1
41,28:2
41,29:2
41,31:2
41,32:2
41,34:1
41,35:1
41,37:1
41,40:2
41,49:2
41,50:2
41,51:1
41,52:1
41,54:1
41,55:2
41,56:2
41,57:2
41,59:1
41,60:2
41,61:2
41,62:2
41,65:1
42,10:1
42,14:1
42,16:1
42,19:1
42,20:1
42,21:1
42,28:2
42,29:2
42,31:2
42,32:2
42,34:1
42,35:1
42,37:1
42,40:2
42,49:2
42,50:2
42,51:1
42,52:1
42,54:1
42,55:2
42,56:2
42,57:2
42,59:1
42,60:2
42,61:2
42,62:2
42,65:1
43,10:1
43,14:1
43,16:1
43,19:1
43,20:1
43,21:1
43,28:2
43,29:2
43,31:2
43,32:2
43,34:1
43,35:1
43,37:1
43,40:2
43,54:1
43,55:2
43,56:2
43,57:2
43,59:1
43,60:2
43,61:2
43,62:2
43,65:1
44,1:1
44,2:1
44,3:1
44,4:1
44,5:1
44,8:1
44,9:1
44,10:2
44,14:2
44,15:1
44,16:2
44,17:1
44,18:1
44,19:2
44,20:2
44,21:2
44,22:1
44,23:1
44,24:1
44,25:1
44,26:1
44,28:3
44,29:3
44,31:3
44,32:3
44,34:2
44,35:2
44,36:1
44,37:2
44,38:1
44,39:1
44,40:3
44,41:1
44,42:1
44,43:1
44,45:1
44,49:3
44,50:3
44,51:2
44,54:2
44,55:3
44,56:3
44,57:3
44,59:2
44,60:3
44,61:3
44,62:3
44,65:2
44,66:1
45,10:1
45,14:1
45,16:1
45,19:1
45,20:1
45,21:1
45,28:2
45,29:2
45,31:2
45,32:2
45,34:1
45,35:1
45,37:1
45,40:2
45,54:1
45,55:2
45,56:2
45,57:2
45,59:1
45,60:2
45,61:2
45,62:2
45,65:1
46,1:1
46,2:1
46,3:1
46,4:1
46,5:1
46,8:1
46,9:1
46,10:2
46,14:2
46,15:1
46,16:2
46,17:1
46,18:1
46,19:2
46,20:2
46,21:2
46,22:1
46,23:1
46,24:1
46,25:1
46,26:1
46,28:3
46,29:3
46,31:3
46,32:3
46,34:2
46,35:2
46,36:1
46,37:2
46,38:1
46,39:1
46,40:3
46,41:1
46,42:1
46,43:1
46,45:1
46,54:2
46,55:3
46,56:3
46,57:3
46,59:2
46,60:3
46,61:3
46,62:3
46,65:2
46,66:1
47,1:1
47,2:1
47,3:1
47,4:1
47,5:1
47,8:1
47,9:1
47,10:2
47,14:2
47,15:1
47,16:2
47,17:1
47,18:1
47,19:2
47,20:2
47,21:2
47,22:1
47,23:1
47,24:1
47,25:1
47,26:1
47,28:3
47,29:3
47,31:3
47,32:3
47,34:2
47,35:2
47,36:1
47,37:2
47,38:1
47,39:1
47,40:3
47,41:1
47,42:1
47,43:1
47,45:1
47,54:2
47,55:3
47,56:3
47,57:3
47,59:2
47,60:3
47,61:3
47,62:3
47,65:2
47,66:1
48,1:1
48,2:1
48,3:1
48,4:1
48,5:1
48,8:1
48,9:1
48,10:2
48,14:2
48,15:1
48,16:2
48,17:1
48,18:1
48,19:2
48,20:2
48,21:2
48,22:1
48,23:1
48,24:1
48,25:1
48,26:1
48,28:3
48,29:3
48,31:3
48,32:3
48,34:2
48,35:2
48,36:1
48,37:2
48,38:1
48,39:1
48,40:3
48,41:1
48,42:1
48,43:1
48,45:1
48,49:3
48,50:3
48,51:2
48,52:2
48,53:2
48,54:2
48,55:3
48,56:3
48,57:3
48,59:2
48,60:3
48,61:3
48,62:3
48,65:2
48,66:1
48,69:1
48,70:1
48,71:1
48,75:3
48,77:3
48,78:3
48,85:2
48,86:2
48,87:2
48,88:2
48,89:2
51,28:1
51,29:1
51,31:1
51,32:1
51,40:1
51,49:1
51,50:1
51,55:1
51,56:1
51,57:1
51,60:1
51,61:1
51,62:1
52,28:1
52,29:1
52,31:1
52,32:1
52,40:1
52,49:1
52,50:1
52,55:1
52,56:1
52,57:1
52,60:1
52,61:1
52,62:1
53,28:1
53,29:1
53,31:1
53,32:1
53,40:1
53,49:1
53,50:1
53,55:1
53,56:1
53,57:1
53,60:1
53,61:1
53,62:1
54,28:1
54,29:1
54,31:1
54,32:1
54,40:1
54,49:1
54,50:1
58,1:1
58,2:1
58,3:1
58,4:1
58,5:1
58,8:1
58,9:1
58,10:2
58,14:2
58,15:1
58,16:2
58,17:1
58,18:1
58,19:2
58,20:2
58,21:2
58,22:1
58,23:1
58,24:1
58,25:1
58,26:1
58,28:3
58,29:3
58,31:3
58,32:3
58,34:2
58,35:2
58,36:1
58,37:2
58,38:1
58,39:1
58,40:3
58,41:1
58,42:1
58,43:1
58,45:1
58,49:3
58,50:3
58,51:2
58,52:2
58,53:2
58,54:2
58,55:3
58,56:3
58,57:3
58,59:2
58,60:3
58,61:3
58,62:3
58,65:2
58,66:1
58,69:1
58,70:1
58,71:1
59,28:1
59,29:1
59,31:1
59,32:1
59,40:1
59,49:1
59,50:1
59,55:1
59,56:1
59,57:1
59,60:1
59,61:1
59,62:1
63,1:1
63,2:1
63,3:1
63,4:1
63,5:1
63,8:1
63,9:1
63,10:2
63,14:2
63,15:1
63,16:2
63,17:1
63,18:1
63,19:2
63,20:2
63,21:2
63,22:1
63,23:1
63,24:1
63,25:1
63,26:1
63,28:3
63,29:3
63,31:3
63,32:3
63,34:2
63,35:2
63,36:1
63,37:2
63,38:1
63,39:1
63,40:3
63,41:1
63,42:1
63,43:1
63,45:1
63,49:3
63,50:3
63,51:2
63,52:2
63,53:2
63,54:2
63,55:3
63,56:3
63,57:3
63,59:2
63,60:3
63,61:3
63,62:3
63,65:2
63,66:1
63,69:1
63,70:1
63,71:1
64,1:1
64,2:1
64,3:1
64,4:1
64,5:1
64,8:1
64,9:1
64,10:2
64,14:2
64,15:1
64,16:2
64,17:1
64,18:1
64,19:2
64,20:2
64,21:2
64,22:1
64,23:1
64,24:1
64,25:1
64,26:1
64,28:3
64,29:3
64,31:3
64,32:3
64,34:2
64,35:2
64,36:1
64,37:2
64,38:1
64,39:1
64,40:3
64,41:1
64,42:1
64,43:1
64,45:1
64,49:3
64,50:3
64,51:2
64,52:2
64,53:2
64,54:2
64,55:3
64,56:3
64,57:3
64,59:2
64,60:3
64,61:3
64,62:3
64,65:2
64,66:1
64,69:1
64,70:1
64,71:1
65,28:1
65,29:1
65,31:1
65,32:1
65,40:1
65,49:1
65,50:1
65,55:1
65,56:1
65,57:1
65,60:1
65,61:1
65,62:1
66,10:1
66,14:1
66,16:1
66,19:1
66,20:1
66,21:1
66,28:2
66,29:2
66,31:2
66,32:2
66,34:1
66,35:1
66,37:1
66,40:2
66,49:2
66,50:2
66,51:1
66,52:1
66,53:1
66,54:1
66,55:2
66,56:2
66,57:2
66,59:1
66,60:2
66,61:2
66,62:2
66,65:1
67,1:1
67,2:1
67,3:1
67,4:1
67,5:1
67,8:1
67,9:1
67,10:2
67,14:2
67,15:1
67,16:2
67,17:1
67,18:1
67,19:2
67,20:2
67,21:2
67,22:1
67,23:1
67,24:1
67,25:1
67,26:1
67,28:3
67,29:3
67,31:3
67,32:3
67,34:2
67,35:2
67,36:1
67,37:2
67,38:1
67,39:1
67,40:3
67,41:1
67,42:1
67,43:1
67,45:1
67,49:3
67,50:3
67,51:2
67,52:2
67,53:2
67,54:2
67,55:3
67,56:3
67,57:3
67,59:2
67,60:3
67,61:3
67,62:3
67,65:2
67,66:1
67,69:1
67,70:1
67,71:1
68,1:1
68,2:1
68,3:1
68,4:1
68,5:1
68,8:1
68,9:1
68,10:2
68,14:2
68,15:1
68,16:2
68,17:1
68,18:1
68,19:2
68,20:2
68,21:2
68,22:1
68,23:1
68,24:1
68,25:1
68,26:1
68,28:3
68,29:3
68,31:3
68,32:3
68,34:2
68,35:2
68,36:1
68,37:2
68,38:1
68,39:1
68,40:3
68,41:1
68,42:1
68,43:1
68,45:1
68,49:3
68,50:3
68,51:2
68,52:2
68,53:2
68,54:2
68,55:3
68,56:3
68,57:3
68,59:2
68,60:3
68,61:3
68,62:3
68,65:2
68,66:1
68,69:1
68,70:1
68,71:1
68,75:3
68,77:3
69,10:1
69,14:1
69,16:1
69,19:1
69,20:1
69,21:1
69,28:2
69,29:2
69,31:2
69,32:2
69,34:1
69,35:1
69,37:1
69,40:2
69,49:2
69,50:2
69,51:1
69,52:1
69,53:1
69,54:1
69,55:2
69,56:2
69,57:2
69,59:1
69,60:2
69,61:2
69,62:2
69,65:1
69,75:2
69,77:2
70,10:1
70,14:1
70,16:1
70,19:1
70,20:1
70,21:1
70,28:2
70,29:2
70,31:2
70,32:2
70,34:1
70,35:1
70,37:1
70,40:2
70,49:2
70,50:2
70,51:1
70,52:1
70,53:1
70,54:1
70,55:2
70,56:2
70,57:2
70,59:1
70,60:2
70,61:2
70,62:2
70,65:1
70,75:2
70,77:2
71,10:1
71,14:1
71,16:1
71,19:1
71,20:1
71,21:1
71,28:2
71,29:2
71,31:2
71,32:2
71,34:1
71,35:1
71,37:1
71,40:2
71,49:2
71,50:2
71,51:1
71,52:1
71,53:1
71,54:1
71,55:2
71,56:2
71,57:2
71,59:1
71,60:2
71,61:2
71,62:2
71,65:1
72,1:1
72,2:1
72,3:1
72,4:1
72,5:1
72,8:1
72,9:1
72,10:2
72,14:2
72,15:1
72,16:2
72,17:1
72,18:1
72,19:2
72,20:2
72,21:2
72,22:1
72,23:1
72,24:1
72,25:1
72,26:1
72,28:3
72,29:3
72,31:3
72,32:3
72,34:2
72,35:2
72,36:1
72,37:2
72,38:1
72,39:1
72,40:3
72,41:1
72,42:1
72,43:1
72,45:1
72,49:3
72,50:3
72,51:2
72,52:2
72,53:2
72,54:2
72,55:3
72,56:3
72,57:3
72,59:2
72,60:3
72,61:3
72,62:3
72,65:2
72,66:1
72,69:1
72,70:1
72,71:1
72,75:3
72,77:3
73,1:1
73,2:1
73,3:1
73,4:1
73,5:1
73,8:1
73,9:1
73,10:2
73,14:2
73,15:1
73,16:2
73,17:1
73,18:1
73,19:2
73,20:2
73,21:2
73,22:1
73,23:1
73,24:1
73,25:1
73,26:1
73,28:3
73,29:3
73,31:3
73,32:3
73,34:2
73,35:2
73,36:1
73,37:2
73,38:1
73,39:1
73,40:3
73,41:1
73,42:1
73,43:1
73,45:1
73,49:3
73,50:3
73,51:2
73,52:2
73,53:2
73,54:2
73,55:3
73,56:3
73,57:3
73,59:2
73,60:3
73,61:3
73,62:3
73,65:2
73,66:1
73,69:1
73,70:1
73,71:1
74,1:1
74,2:1
74,3:1
74,4:1
74,5:1
74,8:1
74,9:1
74,10:2
74,14:2
74,15:1
74,16:2
74,17:1
74,18:1
74,19:2
74,20:2
74,21:2
74,22:1
74,23:1
74,24:1
74,25:1
74,26:1
74,28:3
74,29:3
74,31:3
74,32:3
74,34:2
74,35:2
74,36:1
74,37:2
74,38:1
74,39:1
74,40:3
74,41:1
74,42:1
74,43:1
74,45:1
74,49:3
74,50:3
74,51:2
74,52:2
74,53:2
74,54:2
74,55:3
74,56:3
74,57:3
74,59:2
74,60:3
74,61:3
74,62:3
74,65:2
74,66:1
74,69:1
74,70:1
74,71:1
76,1:1
76,2:1
76,3:1
76,4:1
76,5:1
76,8:1
76,9:1
76,10:2
76,14:2
76,15:1
76,16:2
76,17:1
76,18:1
76,19:2
76,20:2
76,21:2
76,22:1
76,23:1
76,24:1
76,25:1
76,26:1
76,28:3
76,29:3
76,31:3
76,32:3
76,34:2
76,35:2
76,36:1
76,37:2
76,38:1
76,39:1
76,40:3
76,41:1
76,42:1
76,43:1
76,45:1
76,49:3
76,50:3
76,51:2
76,52:2
76,53:2
76,54:2
76,55:3
76,56:3
76,57:3
76,59:2
76,60:3
76,61:3
76,62:3
76,65:2
76,66:1
76,69:1
76,70:1
76,71:1
76,75:3
76,77:3
76,78:3
79,1:1
79,2:1
79,3:1
79,4:1
79,5:1
79,8:1
79,9:1
79,10:2
79,14:2
79,15:1
79,16:2
79,17:1
79,18:1
79,19:2
79,20:2
79,21:2
79,22:1
79,23:1
79,24:1
79,25:1
79,26:1
79,28:3
79,29:3
79,31:3
79,32:3
79,34:2
79,35:2
79,36:1
79,37:2
79,38:1
79,39:1
79,40:3
79,41:1
79,42:1
79,43:1
79,45:1
79,49:3
79,50:3
79,51:2
79,52:2
79,53:2
79,54:2
79,55:3
79,56:3
79,57:3
79,59:2
79,60:3
79,61:3
79,62:3
79,65:2
79,66:1
79,69:1
79,70:1
79,71:1
79,75:3
79,77:3
79,78:3
80,1:1
80,2:1
80,3:1
80,4:1
80,5:1
80,8:1
80,9:1
80,10:2
80,14:2
80,15:1
80,16:2
80,17:1
80,18:1
80,19:2
80,20:2
80,21:2
80,22:1
80,23:1
80,24:1
80,25:1
80,26:1
80,28:3
80,29:3
80,31:3
80,32:3
80,34:2
80,35:2
80,36:1
80,37:2
80,38:1
80,39:1
80,40:3
80,41:1
80,42:1
80,43:1
80,45:1
80,49:3
80,50:3
80,51:2
80,52:2
80,53:2
80,54:2
80,55:3
80,56:3
80,57:3
80,59:2
80,60:3
80,61:3
80,62:3
80,65:2
80,66:1
80,69:1
80,70:1
80,71:1
80,75:3
80,77:3
80,78:3
81,1:1
81,2:1
81,3:1
81,4:1
81,5:1
81,8:1
81,9:1
81,10:2
81,14:2
81,15:1
81,16:2
81,17:1
81,18:1
81,19:2
81,20:2
81,21:2
81,22:1
81,23:1
81,24:1
81,25:1
81,26:1
81,28:3
81,29:3
81,31:3
81,32:3
81,34:2
81,35:2
81,36:1
81,37:2
81,38:1
81,39:1
81,40:3
81,41:1
81,42:1
81,43:1
81,45:1
81,49:3
81,50:3
81,51:2
81,52:2
81,53:2
81,54:2
81,55:3
81,56:3
81,57:3
81,59:2
81,60:3
81,61:3
81,62:3
81,65:2
81,66:1
81,69:1
81,70:1
81,71:1
81,75:3
81,77:3
81,78:3
82,1:1
82,2:1
82,3:1
82,4:1
82,5:1
82,8:1
82,9:1
82,10:2
82,14:2
82,15:1
82,16:2
82,17:1
82,18:1
82,19:2
82,20:2
82,21:2
82,22:1
82,23:1
82,24:1
82,25:1
82,26:1
82,28:3
82,29:3
82,31:3
82,32:3
82,34:2
82,35:2
82,36:1
82,37:2
82,38:1
82,39:1
82,40:3
82,41:1
82,42:1
82,43:1
82,45:1
82,49:3
82,50:3
82,51:2
82,52:2
82,53:2
82,54:2
82,55:3
82,56:3
82,57:3
82,59:2
82,60:3
82,61:3
82,62:3
82,65:2
82,66:1
82,69:1
82,70:1
82,71:1
82,75:3
82,77:3
82,78:3
82,85:2
83,1:1
83,2:1
83,3:1
83,4:1
83,5:1
83,8:1
83,9:1
83,10:2
83,14:2
83,15:1
83,16:2
83,17:1
83,18:1
83,19:2
83,20:2
83,21:2
83,22:1
83,23:1
83,24:1
83,25:1
83,26:1
83,28:3
83,29:3
83,31:3
83,32:3
83,34:2
83,35:2
83,36:1
83,37:2
83,38:1
83,39:1
83,40:3
83,41:1
83,42:1
83,43:1
83,45:1
83,49:3
83,50:3
83,51:2
83,52:2
83,53:2
83,54:2
83,55:3
83,56:3
83,57:3
83,59:2
83,60:3
83,61:3
83,62:3
83,65:2
83,66:1
83,69:1
83,70:1
83,71:1
83,75:3
83,77:3
83,78:3
83,85:2
84,1:1
84,2:1
84,3:1
84,4:1
84,5:1
84,8:1
84,9:1
84,10:2
84,14:2
84,15:1
84,16:2
84,17:1
84,18:1
84,19:2
84,20:2
84,21:2
84,22:1
84,23:1
84,24:1
84,25:1
84,26:1
84,28:3
84,29:3
84,31:3
84,32:3
84,34:2
84,35:2
84,36:1
84,37:2
84,38:1
84,39:1
84,40:3
84,41:1
84,42:1
84,43:1
84,45:1
84,49:3
84,50:3
84,51:2
84,52:2
84,53:2
84,54:2
84,55:3
84,56:3
84,57:3
84,59:2
84,60:3
84,61:3
84,62:3
84,65:2
84,66:1
84,69:1
84,70:1
84,71:1
84,75:3
84,77:3
84,78:3
84,85:2
85,28:1
85,29:1
85,31:1
85,32:1
85,40:1
85,49:1
85,50:1
85,55:1
85,56:1
85,57:1
85,60:1
85,61:1
85,62:1
85,75:1
85,77:1
85,78:1
86,28:1
86,29:1
86,31:1
86,32:1
86,40:1
86,49:1
86,50:1
86,55:1
86,56:1
86,57:1
86,60:1
86,61:1
86,62:1
86,75:1
86,77:1
86,78:1
87,28:1
87,29:1
87,31:1
87,32:1
87,40:1
87,49:1
87,50:1
87,55:1
87,56:1
87,57:1
87,60:1
87,61:1
87,62:1
87,75:1
87,77:1
87,78:1
88,28:1
88,29:1
88,31:1
88,32:1
88,40:1
88,49:1
88,50:1
88,55:1
88,56:1
88,57:1
88,60:1
88,61:1
88,62:1
88,75:1
88,77:1
88,78:1
89,28:1
89,29:1
89,31:1
89,32:1
89,40:1
89,49:1
89,50:1
89,55:1
89,56:1
89,57:1
89,60:1
89,61:1
89,62:1
89,75:1
89,77:1
89,78:1

<end>

<optimal SALBP-1 value>
25


<rand seed>
467321153

